p cnf 225 1
225 0
w 1 0.131964
w 2 1 0.053667
w 2 -1 0.663792
w 3 2 1
w 3 -2 0
w 4 3 0
w 4 -3 1
w 5 4 1
w 5 -4 0
w 6 5 0
w 6 -5 1
w 7 6 1
w 7 -6 0
w 8 7 0
w 8 -7 1
w 9 8 0
w 9 -8 1
w 10 9 0
w 10 -9 1
w 11 10 1
w 11 -10 0
w 12 11 1
w 12 -11 0
w 13 12 0
w 13 -12 1
w 14 13 0
w 14 -13 1
w 15 14 1
w 15 -14 0
w 16 1 1
w 16 -1 0
w 17 16 2 0.68597
w 17 16 -2 0.16095
w 17 -16 2 0.33833
w 17 -16 -2 0.0758739
w 18 17 3 1
w 18 17 -3 1
w 18 -17 3 1
w 18 -17 -3 0
w 19 18 4 0.659815
w 19 18 -4 0.572665
w 19 -18 4 0.516642
w 19 -18 -4 0.280912
w 20 19 5 0.648433
w 20 19 -5 0.350497
w 20 -19 5 0.116963
w 20 -19 -5 0.920803
w 21 20 6 0
w 21 20 -6 0
w 21 -20 6 1
w 21 -20 -6 0
w 22 21 7 1
w 22 21 -7 1
w 22 -21 7 1
w 22 -21 -7 0
w 23 22 8 1
w 23 22 -8 0
w 23 -22 8 1
w 23 -22 -8 1
w 24 23 9 0
w 24 23 -9 0
w 24 -23 9 0
w 24 -23 -9 1
w 25 24 10 1
w 25 24 -10 0
w 25 -24 10 1
w 25 -24 -10 0
w 26 25 11 1
w 26 25 -11 0
w 26 -25 11 0
w 26 -25 -11 1
w 27 26 12 0
w 27 26 -12 1
w 27 -26 12 0
w 27 -26 -12 0
w 28 27 13 0.834476
w 28 27 -13 0.48753
w 28 -27 13 0.854145
w 28 -27 -13 0.687444
w 29 28 14 0
w 29 28 -14 1
w 29 -28 14 1
w 29 -28 -14 0
w 30 29 15 1
w 30 29 -15 0
w 30 -29 15 1
w 30 -29 -15 1
w 31 16 1
w 31 -16 0
w 32 31 17 0
w 32 31 -17 0
w 32 -31 17 1
w 32 -31 -17 1
w 33 32 18 1
w 33 32 -18 1
w 33 -32 18 0
w 33 -32 -18 1
w 34 33 19 1
w 34 33 -19 0
w 34 -33 19 0
w 34 -33 -19 0
w 35 34 20 1
w 35 34 -20 0
w 35 -34 20 0
w 35 -34 -20 0
w 36 35 21 0.872443
w 36 35 -21 0.677376
w 36 -35 21 0.219095
w 36 -35 -21 0.759417
w 37 36 22 0
w 37 36 -22 1
w 37 -36 22 0
w 37 -36 -22 1
w 38 37 23 0.378075
w 38 37 -23 0.723925
w 38 -37 23 0.615127
w 38 -37 -23 0.15215
w 39 38 24 0.348201
w 39 38 -24 0.194272
w 39 -38 24 0.456553
w 39 -38 -24 0.569327
w 40 39 25 1
w 40 39 -25 0
w 40 -39 25 0
w 40 -39 -25 1
w 41 40 26 0.0267386
w 41 40 -26 0.236414
w 41 -40 26 0.0250978
w 41 -40 -26 0.719329
w 42 41 27 0
w 42 41 -27 0
w 42 -41 27 1
w 42 -41 -27 1
w 43 42 28 1
w 43 42 -28 0
w 43 -42 28 1
w 43 -42 -28 0
w 44 43 29 1
w 44 43 -29 0
w 44 -43 29 1
w 44 -43 -29 0
w 45 44 30 0.597518
w 45 44 -30 0.538162
w 45 -44 30 0.147272
w 45 -44 -30 0.0540708
w 46 31 0
w 46 -31 1
w 47 46 32 0
w 47 46 -32 0
w 47 -46 32 0
w 47 -46 -32 1
w 48 47 33 1
w 48 47 -33 0
w 48 -47 33 1
w 48 -47 -33 0
w 49 48 34 1
w 49 48 -34 1
w 49 -48 34 0
w 49 -48 -34 1
w 50 49 35 0
w 50 49 -35 0
w 50 -49 35 1
w 50 -49 -35 1
w 51 50 36 1
w 51 50 -36 0
w 51 -50 36 0
w 51 -50 -36 1
w 52 51 37 1
w 52 51 -37 0
w 52 -51 37 0
w 52 -51 -37 1
w 53 52 38 1
w 53 52 -38 0
w 53 -52 38 1
w 53 -52 -38 1
w 54 53 39 0.750596
w 54 53 -39 0.171253
w 54 -53 39 0.0806407
w 54 -53 -39 0.10075
w 55 54 40 1
w 55 54 -40 0
w 55 -54 40 1
w 55 -54 -40 1
w 56 55 41 0
w 56 55 -41 1
w 56 -55 41 0
w 56 -55 -41 1
w 57 56 42 1
w 57 56 -42 0
w 57 -56 42 1
w 57 -56 -42 1
w 58 57 43 0
w 58 57 -43 1
w 58 -57 43 0
w 58 -57 -43 0
w 59 58 44 0.747117
w 59 58 -44 0.839891
w 59 -58 44 0.626886
w 59 -58 -44 0.866887
w 60 59 45 1
w 60 59 -45 1
w 60 -59 45 1
w 60 -59 -45 0
w 61 46 1
w 61 -46 0
w 62 61 47 0.76091
w 62 61 -47 0.0772171
w 62 -61 47 0.37141
w 62 -61 -47 0.0967023
w 63 62 48 0.654818
w 63 62 -48 0.340997
w 63 -62 48 0.564395
w 63 -62 -48 0.724812
w 64 63 49 1
w 64 63 -49 1
w 64 -63 49 0
w 64 -63 -49 1
w 65 64 50 1
w 65 64 -50 1
w 65 -64 50 0
w 65 -64 -50 1
w 66 65 51 0
w 66 65 -51 1
w 66 -65 51 1
w 66 -65 -51 1
w 67 66 52 0.632323
w 67 66 -52 0.725664
w 67 -66 52 0.624873
w 67 -66 -52 0.556901
w 68 67 53 1
w 68 67 -53 1
w 68 -67 53 1
w 68 -67 -53 0
w 69 68 54 0
w 69 68 -54 1
w 69 -68 54 0
w 69 -68 -54 0
w 70 69 55 0.137302
w 70 69 -55 0.656605
w 70 -69 55 0.361661
w 70 -69 -55 0.581022
w 71 70 56 0.443597
w 71 70 -56 0.256175
w 71 -70 56 0.013391
w 71 -70 -56 0.456864
w 72 71 57 1
w 72 71 -57 0
w 72 -71 57 0
w 72 -71 -57 0
w 73 72 58 1
w 73 72 -58 1
w 73 -72 58 0
w 73 -72 -58 1
w 74 73 59 0.507914
w 74 73 -59 0.884899
w 74 -73 59 0.612283
w 74 -73 -59 0.421967
w 75 74 60 1
w 75 74 -60 0
w 75 -74 60 0
w 75 -74 -60 0
w 76 61 0
w 76 -61 1
w 77 76 62 0
w 77 76 -62 0
w 77 -76 62 1
w 77 -76 -62 0
w 78 77 63 0.0518762
w 78 77 -63 0.777789
w 78 -77 63 0.345097
w 78 -77 -63 0.730322
w 79 78 64 0.442115
w 79 78 -64 0.697924
w 79 -78 64 0.610129
w 79 -78 -64 0.681721
w 80 79 65 1
w 80 79 -65 0
w 80 -79 65 0
w 80 -79 -65 0
w 81 80 66 0.62184
w 81 80 -66 0.576873
w 81 -80 66 0.323566
w 81 -80 -66 0.684473
w 82 81 67 0
w 82 81 -67 0
w 82 -81 67 1
w 82 -81 -67 0
w 83 82 68 0.042044
w 83 82 -68 0.77223
w 83 -82 68 0.557756
w 83 -82 -68 0.930277
w 84 83 69 0.335545
w 84 83 -69 0.275373
w 84 -83 69 0.554428
w 84 -83 -69 0.156735
w 85 84 70 1
w 85 84 -70 1
w 85 -84 70 1
w 85 -84 -70 0
w 86 85 71 0.0462022
w 86 85 -71 0.895801
w 86 -85 71 0.807814
w 86 -85 -71 0.201108
w 87 86 72 0.429654
w 87 86 -72 0.777982
w 87 -86 72 0.17555
w 87 -86 -72 0.114127
w 88 87 73 0
w 88 87 -73 0
w 88 -87 73 1
w 88 -87 -73 1
w 89 88 74 0.991283
w 89 88 -74 0.329435
w 89 -88 74 0.624736
w 89 -88 -74 0.549039
w 90 89 75 0
w 90 89 -75 1
w 90 -89 75 1
w 90 -89 -75 1
w 91 76 0
w 91 -76 1
w 92 91 77 1
w 92 91 -77 1
w 92 -91 77 1
w 92 -91 -77 0
w 93 92 78 0
w 93 92 -78 0
w 93 -92 78 0
w 93 -92 -78 1
w 94 93 79 0.677076
w 94 93 -79 0.00347419
w 94 -93 79 0.958035
w 94 -93 -79 0.0227685
w 95 94 80 0
w 95 94 -80 0
w 95 -94 80 1
w 95 -94 -80 0
w 96 95 81 1
w 96 95 -81 0
w 96 -95 81 1
w 96 -95 -81 1
w 97 96 82 0.645599
w 97 96 -82 0.10508
w 97 -96 82 0.763365
w 97 -96 -82 0.686918
w 98 97 83 1
w 98 97 -83 0
w 98 -97 83 0
w 98 -97 -83 0
w 99 98 84 1
w 99 98 -84 0
w 99 -98 84 1
w 99 -98 -84 1
w 100 99 85 0.359702
w 100 99 -85 0.283593
w 100 -99 85 0.906465
w 100 -99 -85 0.317737
w 101 100 86 1
w 101 100 -86 0
w 101 -100 86 1
w 101 -100 -86 0
w 102 101 87 0.739031
w 102 101 -87 0.891054
w 102 -101 87 0.149521
w 102 -101 -87 0.500046
w 103 102 88 1
w 103 102 -88 0
w 103 -102 88 1
w 103 -102 -88 1
w 104 103 89 0.923783
w 104 103 -89 0.691967
w 104 -103 89 0.327664
w 104 -103 -89 0.93322
w 105 104 90 0.429204
w 105 104 -90 0.640643
w 105 -104 90 0.866159
w 105 -104 -90 0.944999
w 106 91 1
w 106 -91 0
w 107 106 92 0
w 107 106 -92 0
w 107 -106 92 1
w 107 -106 -92 1
w 108 107 93 1
w 108 107 -93 0
w 108 -107 93 1
w 108 -107 -93 1
w 109 108 94 0
w 109 108 -94 0
w 109 -108 94 1
w 109 -108 -94 0
w 110 109 95 1
w 110 109 -95 1
w 110 -109 95 1
w 110 -109 -95 0
w 111 110 96 1
w 111 110 -96 0
w 111 -110 96 1
w 111 -110 -96 0
w 112 111 97 0
w 112 111 -97 0
w 112 -111 97 0
w 112 -111 -97 1
w 113 112 98 0
w 113 112 -98 1
w 113 -112 98 0
w 113 -112 -98 0
w 114 113 99 1
w 114 113 -99 0
w 114 -113 99 1
w 114 -113 -99 1
w 115 114 100 1
w 115 114 -100 1
w 115 -114 100 1
w 115 -114 -100 0
w 116 115 101 1
w 116 115 -101 1
w 116 -115 101 1
w 116 -115 -101 0
w 117 116 102 1
w 117 116 -102 1
w 117 -116 102 1
w 117 -116 -102 0
w 118 117 103 0
w 118 117 -103 0
w 118 -117 103 1
w 118 -117 -103 0
w 119 118 104 1
w 119 118 -104 0
w 119 -118 104 1
w 119 -118 -104 1
w 120 119 105 0.60204
w 120 119 -105 0.310818
w 120 -119 105 0.219195
w 120 -119 -105 0.199138
w 121 106 1
w 121 -106 0
w 122 121 107 1
w 122 121 -107 1
w 122 -121 107 1
w 122 -121 -107 0
w 123 122 108 0
w 123 122 -108 0
w 123 -122 108 1
w 123 -122 -108 1
w 124 123 109 0.493486
w 124 123 -109 0.615299
w 124 -123 109 0.350985
w 124 -123 -109 0.0962605
w 125 124 110 1
w 125 124 -110 1
w 125 -124 110 1
w 125 -124 -110 0
w 126 125 111 1
w 126 125 -111 0
w 126 -125 111 1
w 126 -125 -111 1
w 127 126 112 0.760858
w 127 126 -112 0.647322
w 127 -126 112 0.995416
w 127 -126 -112 0.426256
w 128 127 113 0.553628
w 128 127 -113 0.0494796
w 128 -127 113 0.347421
w 128 -127 -113 0.142504
w 129 128 114 1
w 129 128 -114 1
w 129 -128 114 1
w 129 -128 -114 0
w 130 129 115 0
w 130 129 -115 0
w 130 -129 115 1
w 130 -129 -115 0
w 131 130 116 1
w 131 130 -116 1
w 131 -130 116 1
w 131 -130 -116 0
w 132 131 117 0.17291
w 132 131 -117 0.070278
w 132 -131 117 0.104877
w 132 -131 -117 0.62295
w 133 132 118 1
w 133 132 -118 1
w 133 -132 118 1
w 133 -132 -118 0
w 134 133 119 0.030009
w 134 133 -119 0.450199
w 134 -133 119 0.859543
w 134 -133 -119 0.37743
w 135 134 120 1
w 135 134 -120 0
w 135 -134 120 1
w 135 -134 -120 0
w 136 121 0
w 136 -121 1
w 137 136 122 0
w 137 136 -122 1
w 137 -136 122 0
w 137 -136 -122 0
w 138 137 123 0.547071
w 138 137 -123 0.976775
w 138 -137 123 0.516882
w 138 -137 -123 0.457709
w 139 138 124 0
w 139 138 -124 1
w 139 -138 124 0
w 139 -138 -124 1
w 140 139 125 1
w 140 139 -125 0
w 140 -139 125 0
w 140 -139 -125 0
w 141 140 126 1
w 141 140 -126 0
w 141 -140 126 1
w 141 -140 -126 1
w 142 141 127 1
w 142 141 -127 0
w 142 -141 127 1
w 142 -141 -127 1
w 143 142 128 1
w 143 142 -128 1
w 143 -142 128 0
w 143 -142 -128 1
w 144 143 129 0.489937
w 144 143 -129 0.111222
w 144 -143 129 0.792113
w 144 -143 -129 0.00681909
w 145 144 130 1
w 145 144 -130 0
w 145 -144 130 1
w 145 -144 -130 1
w 146 145 131 0
w 146 145 -131 0
w 146 -145 131 1
w 146 -145 -131 0
w 147 146 132 0.172136
w 147 146 -132 0.76608
w 147 -146 132 0.663429
w 147 -146 -132 0.810866
w 148 147 133 1
w 148 147 -133 0
w 148 -147 133 1
w 148 -147 -133 0
w 149 148 134 1
w 149 148 -134 1
w 149 -148 134 0
w 149 -148 -134 1
w 150 149 135 0
w 150 149 -135 1
w 150 -149 135 1
w 150 -149 -135 1
w 151 136 1
w 151 -136 0
w 152 151 137 0
w 152 151 -137 1
w 152 -151 137 0
w 152 -151 -137 0
w 153 152 138 0.307447
w 153 152 -138 0.221431
w 153 -152 138 0.97344
w 153 -152 -138 0.0735266
w 154 153 139 0.784306
w 154 153 -139 0.24282
w 154 -153 139 0.613296
w 154 -153 -139 0.422609
w 155 154 140 0
w 155 154 -140 0
w 155 -154 140 1
w 155 -154 -140 1
w 156 155 141 1
w 156 155 -141 0
w 156 -155 141 1
w 156 -155 -141 1
w 157 156 142 1
w 157 156 -142 0
w 157 -156 142 0
w 157 -156 -142 0
w 158 157 143 0
w 158 157 -143 0
w 158 -157 143 0
w 158 -157 -143 1
w 159 158 144 0.320798
w 159 158 -144 0.0662
w 159 -158 144 0.139897
w 159 -158 -144 0.294237
w 160 159 145 1
w 160 159 -145 1
w 160 -159 145 1
w 160 -159 -145 0
w 161 160 146 1
w 161 160 -146 0
w 161 -160 146 0
w 161 -160 -146 1
w 162 161 147 0
w 162 161 -147 0
w 162 -161 147 0
w 162 -161 -147 1
w 163 162 148 0.299422
w 163 162 -148 0.441171
w 163 -162 148 0.378322
w 163 -162 -148 0.949676
w 164 163 149 1
w 164 163 -149 1
w 164 -163 149 1
w 164 -163 -149 0
w 165 164 150 0
w 165 164 -150 0
w 165 -164 150 0
w 165 -164 -150 1
w 166 151 1
w 166 -151 0
w 167 166 152 0
w 167 166 -152 0
w 167 -166 152 1
w 167 -166 -152 1
w 168 167 153 1
w 168 167 -153 0
w 168 -167 153 1
w 168 -167 -153 1
w 169 168 154 1
w 169 168 -154 1
w 169 -168 154 0
w 169 -168 -154 0
w 170 169 155 0.0666195
w 170 169 -155 0.827948
w 170 -169 155 0.249326
w 170 -169 -155 0.0739675
w 171 170 156 1
w 171 170 -156 0
w 171 -170 156 1
w 171 -170 -156 1
w 172 171 157 1
w 172 171 -157 0
w 172 -171 157 1
w 172 -171 -157 1
w 173 172 158 0.506318
w 173 172 -158 0.0145992
w 173 -172 158 0.532319
w 173 -172 -158 0.107292
w 174 173 159 1
w 174 173 -159 0
w 174 -173 159 1
w 174 -173 -159 0
w 175 174 160 1
w 175 174 -160 1
w 175 -174 160 1
w 175 -174 -160 0
w 176 175 161 1
w 176 175 -161 1
w 176 -175 161 0
w 176 -175 -161 0
w 177 176 162 1
w 177 176 -162 1
w 177 -176 162 1
w 177 -176 -162 0
w 178 177 163 1
w 178 177 -163 0
w 178 -177 163 0
w 178 -177 -163 0
w 179 178 164 0.25078
w 179 178 -164 0.215913
w 179 -178 164 0.985282
w 179 -178 -164 0.264657
w 180 179 165 0
w 180 179 -165 0
w 180 -179 165 1
w 180 -179 -165 1
w 181 166 0
w 181 -166 1
w 182 181 167 0
w 182 181 -167 1
w 182 -181 167 0
w 182 -181 -167 1
w 183 182 168 0
w 183 182 -168 1
w 183 -182 168 0
w 183 -182 -168 1
w 184 183 169 0
w 184 183 -169 1
w 184 -183 169 0
w 184 -183 -169 0
w 185 184 170 1
w 185 184 -170 0
w 185 -184 170 1
w 185 -184 -170 1
w 186 185 171 0
w 186 185 -171 0
w 186 -185 171 1
w 186 -185 -171 1
w 187 186 172 1
w 187 186 -172 0
w 187 -186 172 0
w 187 -186 -172 0
w 188 187 173 1
w 188 187 -173 1
w 188 -187 173 0
w 188 -187 -173 1
w 189 188 174 0.569131
w 189 188 -174 0.294739
w 189 -188 174 0.418158
w 189 -188 -174 0.746594
w 190 189 175 1
w 190 189 -175 1
w 190 -189 175 1
w 190 -189 -175 0
w 191 190 176 0.134166
w 191 190 -176 0.563152
w 191 -190 176 0.112645
w 191 -190 -176 0.688319
w 192 191 177 0.552784
w 192 191 -177 0.227753
w 192 -191 177 0.481704
w 192 -191 -177 0.0151147
w 193 192 178 0
w 193 192 -178 1
w 193 -192 178 0
w 193 -192 -178 0
w 194 193 179 1
w 194 193 -179 1
w 194 -193 179 0
w 194 -193 -179 0
w 195 194 180 1
w 195 194 -180 0
w 195 -194 180 0
w 195 -194 -180 1
w 196 181 1
w 196 -181 0
w 197 196 182 0
w 197 196 -182 1
w 197 -196 182 0
w 197 -196 -182 1
w 198 197 183 1
w 198 197 -183 0
w 198 -197 183 0
w 198 -197 -183 1
w 199 198 184 0
w 199 198 -184 1
w 199 -198 184 1
w 199 -198 -184 0
w 200 199 185 0
w 200 199 -185 1
w 200 -199 185 1
w 200 -199 -185 1
w 201 200 186 1
w 201 200 -186 0
w 201 -200 186 1
w 201 -200 -186 1
w 202 201 187 0
w 202 201 -187 0
w 202 -201 187 1
w 202 -201 -187 1
w 203 202 188 0
w 203 202 -188 0
w 203 -202 188 1
w 203 -202 -188 1
w 204 203 189 0.635128
w 204 203 -189 0.609218
w 204 -203 189 0.758573
w 204 -203 -189 0.376419
w 205 204 190 0
w 205 204 -190 1
w 205 -204 190 1
w 205 -204 -190 0
w 206 205 191 0
w 206 205 -191 1
w 206 -205 191 0
w 206 -205 -191 1
w 207 206 192 0
w 207 206 -192 1
w 207 -206 192 0
w 207 -206 -192 0
w 208 207 193 1
w 208 207 -193 0
w 208 -207 193 0
w 208 -207 -193 0
w 209 208 194 1
w 209 208 -194 0
w 209 -208 194 0
w 209 -208 -194 1
w 210 209 195 0.967203
w 210 209 -195 0.864716
w 210 -209 195 0.45606
w 210 -209 -195 0.725776
w 211 196 1
w 211 -196 0
w 212 211 197 0.373959
w 212 211 -197 0.322888
w 212 -211 197 0.169291
w 212 -211 -197 0.696178
w 213 212 198 1
w 213 212 -198 1
w 213 -212 198 0
w 213 -212 -198 1
w 214 213 199 1
w 214 213 -199 1
w 214 -213 199 0
w 214 -213 -199 1
w 215 214 200 0.143654
w 215 214 -200 0.932586
w 215 -214 200 0.332408
w 215 -214 -200 0.528449
w 216 215 201 1
w 216 215 -201 1
w 216 -215 201 0
w 216 -215 -201 1
w 217 216 202 0
w 217 216 -202 1
w 217 -216 202 0
w 217 -216 -202 0
w 218 217 203 1
w 218 217 -203 1
w 218 -217 203 0
w 218 -217 -203 0
w 219 218 204 0.270829
w 219 218 -204 0.414422
w 219 -218 204 0.291027
w 219 -218 -204 0.359891
w 220 219 205 0
w 220 219 -205 0
w 220 -219 205 0
w 220 -219 -205 1
w 221 220 206 0
w 221 220 -206 1
w 221 -220 206 1
w 221 -220 -206 1
w 222 221 207 0.926904
w 222 221 -207 0.00511587
w 222 -221 207 0.696166
w 222 -221 -207 0.189232
w 223 222 208 0
w 223 222 -208 0
w 223 -222 208 0
w 223 -222 -208 1
w 224 223 209 1
w 224 223 -209 0
w 224 -223 209 1
w 224 -223 -209 0
w 225 224 210 0.0214751
w 225 224 -210 0.51752
w 225 -224 210 0.12006
w 225 -224 -210 0.381366